100
1000
200
198
197
195
194
194
193
192
192
192
191
190
189
189
189
189
189
189
188
187
187
187
187
185
184
184
184
183
183
183
182
182
182
181
181
181
181
180
179
178
177
177
177
177
176
176
175
175
175
175
175
174
174
174
173
173
172
172
172
172
172
172
172
171
171
171
170
170
169
167
167
166
166
166
165
165
165
164
164
163
163
162
162
161
158
158
158
158
156
156
156
155
154
153
153
152
152
151
150
150
